SDVRP instances/p02/p02_7090_tsplib0_split0.vrp
NAME:.\SDVRP_split
BEST_KNOWN: 0
COMMENT: 0
DIMENSION: 571
CAPACITY: 140
EDGE_WEIGHT_FORMAT: FUNCTION
EDGE_WEIGHT_TYPE: EXACT_2D
NODE_COORD_SECTION
1 0.00000 0.00000
2 -18 -18
3 -18 -18
4 -18 -18
5 -18 -18
6 -18 -18
7 -18 -18
8 -18 -18
9 -4 -14
10 -4 -14
11 -4 -14
12 -4 -14
13 -4 -14
14 -4 -14
15 -4 -14
16 -4 -14
17 -4 -14
18 -19 5
19 -19 5
20 -19 5
21 -19 5
22 -19 5
23 -19 5
24 -19 5
25 -19 5
26 -19 5
27 -19 5
28 5 -5
29 5 -5
30 5 -5
31 5 -5
32 5 -5
33 15 -20
34 15 -20
35 15 -20
36 15 -20
37 15 -20
38 15 -20
39 15 -20
40 15 -20
41 15 -20
42 -7 -6
43 -7 -6
44 -7 -6
45 -7 -6
46 -7 -6
47 -7 -6
48 -7 -6
49 -7 -6
50 10 10
51 10 10
52 10 10
53 10 10
54 10 10
55 10 10
56 10 10
57 10 10
58 10 10
59 10 10
60 10 10
61 15 5
62 15 5
63 15 5
64 15 5
65 15 5
66 15 5
67 15 5
68 -14 19
69 -14 19
70 -14 19
71 -14 19
72 -14 19
73 -14 19
74 -14 19
75 -14 19
76 -14 19
77 0 26
78 0 26
79 0 26
80 0 26
81 15 25
82 15 25
83 15 25
84 15 25
85 15 25
86 15 25
87 -5 11
88 -5 11
89 -5 11
90 -5 11
91 -5 11
92 -5 11
93 -5 11
94 -5 11
95 -5 11
96 22 -5
97 22 -5
98 22 -5
99 22 -5
100 22 -5
101 22 -5
102 22 -5
103 22 -5
104 22 -5
105 22 -5
106 22 -5
107 22 17
108 22 17
109 22 17
110 22 17
111 22 -16
112 22 -16
113 22 -16
114 22 -16
115 22 -16
116 22 -16
117 22 -16
118 22 -16
119 22 -16
120 -19 -4
121 -19 -4
122 -19 -4
123 -19 -4
124 -19 -4
125 -19 -4
126 -7 4
127 -7 4
128 -7 4
129 -7 4
130 -7 4
131 -7 4
132 -31 16
133 -31 16
134 -31 16
135 -31 16
136 22 8
137 22 8
138 22 8
139 22 8
140 22 8
141 22 8
142 22 8
143 26 -26
144 26 -26
145 26 -26
146 26 -26
147 26 -26
148 4 -27
149 4 -27
150 4 -27
151 4 -27
152 4 -27
153 4 -27
154 -14 -27
155 -14 -27
156 -14 -27
157 -14 -27
158 -14 -27
159 -14 -27
160 -14 -27
161 -29 -12
162 -29 -12
163 -29 -12
164 -29 -12
165 -29 -12
166 -29 -12
167 -29 -12
168 -29 -12
169 -33 3
170 -33 3
171 -33 3
172 -33 3
173 -33 3
174 -33 3
175 -23 24
176 -23 24
177 -23 24
178 -23 24
179 -23 24
180 -23 24
181 1 6
182 1 6
183 1 6
184 1 6
185 1 6
186 1 6
187 1 6
188 1 6
189 1 6
190 1 6
191 15 -6
192 15 -6
193 15 -6
194 15 -6
195 -5 -24
196 -5 -24
197 -5 -24
198 -5 -24
199 -5 -24
200 12 -14
201 12 -14
202 12 -14
203 12 -14
204 12 -14
205 12 -14
206 12 -14
207 12 -14
208 3 -14
209 3 -14
210 3 -14
211 3 -14
212 3 -14
213 3 -14
214 -9 36
215 -9 36
216 -9 36
217 -9 36
218 -9 36
219 -9 36
220 -9 36
221 -18 13
222 -18 13
223 -18 13
224 -18 13
225 -18 13
226 -18 13
227 -14 -11
228 -14 -11
229 -14 -11
230 -14 -11
231 -14 -11
232 -14 -11
233 -14 -11
234 10 0
235 10 0
236 10 0
237 10 0
238 10 0
239 10 0
240 10 0
241 10 0
242 10 0
243 10 0
244 15 10
245 15 10
246 15 10
247 15 10
248 15 10
249 15 10
250 15 10
251 14 -30
252 14 -30
253 14 -30
254 14 -30
255 14 -30
256 14 -30
257 14 -30
258 14 -30
259 14 -30
260 14 -30
261 14 -30
262 20 -25
263 20 -25
264 20 -25
265 20 -25
266 20 -25
267 7 26
268 7 26
269 7 26
270 7 26
271 7 26
272 7 26
273 7 26
274 7 26
275 7 26
276 7 26
277 7 26
278 -10 20
279 -10 20
280 -10 20
281 -10 20
282 -10 20
283 -10 20
284 -10 20
285 -10 20
286 -10 20
287 -10 20
288 -10 20
289 -10 10
290 -10 10
291 -10 10
292 -10 10
293 -10 10
294 -10 10
295 -10 10
296 -28 -23
297 -28 -23
298 -28 -23
299 -28 -23
300 -28 -23
301 -28 -23
302 -28 -23
303 -28 -23
304 -28 -23
305 -25 -26
306 -25 -26
307 -25 -26
308 -25 -26
309 -25 -26
310 -24 -21
311 -24 -21
312 -24 -21
313 -24 -21
314 -24 -21
315 -24 -21
316 -24 -21
317 -19 8
318 -19 8
319 -19 8
320 -19 8
321 -19 8
322 -19 8
323 -19 8
324 -19 8
325 10 -10
326 10 -10
327 10 -10
328 10 -10
329 10 -10
330 10 -10
331 10 -10
332 10 -10
333 11 2
334 11 2
335 11 2
336 11 2
337 11 2
338 10 -25
339 10 -25
340 10 -25
341 10 -25
342 10 -25
343 10 -25
344 10 -25
345 10 -25
346 10 -25
347 10 -25
348 10 -25
349 8 -19
350 8 -19
351 8 -19
352 8 -19
353 8 -19
354 8 -19
355 8 -19
356 8 -19
357 8 -19
358 8 -19
359 -28 -2
360 -28 -2
361 -28 -2
362 -28 -2
363 -28 -2
364 -28 -2
365 -28 -2
366 -25 16
367 -25 16
368 -25 16
369 -25 16
370 -25 16
371 -25 16
372 -25 16
373 -11 -1
374 -11 -1
375 -11 -1
376 -11 -1
377 -11 -1
378 -11 -1
379 -11 -1
380 -11 -1
381 14 -2
382 14 -2
383 14 -2
384 14 -2
385 14 -2
386 14 -2
387 14 -2
388 14 -2
389 15 17
390 15 17
391 15 17
392 15 17
393 15 17
394 15 17
395 27 1
396 27 1
397 27 1
398 27 1
399 27 1
400 27 1
401 27 1
402 27 1
403 27 1
404 -30 30
405 -30 30
406 -30 30
407 -30 30
408 -30 30
409 -30 30
410 -30 30
411 -30 30
412 -30 30
413 -30 30
414 -34 -15
415 -34 -15
416 -34 -15
417 -34 -15
418 -34 -15
419 -34 -15
420 -34 -15
421 -34 -15
422 -34 -15
423 -34 -15
424 25 -13
425 25 -13
426 25 -13
427 25 -13
428 25 -13
429 25 -13
430 0 20
431 0 20
432 0 20
433 0 20
434 0 20
435 0 20
436 0 20
437 0 20
438 0 20
439 30 24
440 30 24
441 30 24
442 30 24
443 30 24
444 30 24
445 30 24
446 30 24
447 30 24
448 24 -36
449 24 -36
450 24 -36
451 24 -36
452 24 -36
453 24 -36
454 24 -36
455 -4 -34
456 -4 -34
457 -4 -34
458 -4 -34
459 -4 -34
460 -4 -34
461 -4 -34
462 -4 -34
463 -10 -20
464 -10 -20
465 -10 -20
466 -10 -20
467 -10 -20
468 -20 -10
469 -20 -10
470 -20 -10
471 -20 -10
472 -20 -10
473 -20 -10
474 -25 -35
475 -25 -35
476 -25 -35
477 -25 -35
478 -25 -35
479 -25 -35
480 10 30
481 10 30
482 10 30
483 10 30
484 10 30
485 10 30
486 10 30
487 17 32
488 17 32
489 17 32
490 17 32
491 17 32
492 17 32
493 17 32
494 17 32
495 17 32
496 17 32
497 17 32
498 5 2
499 5 2
500 5 2
501 5 2
502 5 2
503 5 2
504 5 2
505 -2 -7
506 -2 -7
507 -2 -7
508 -2 -7
509 -2 -7
510 -2 -7
511 10 -36
512 10 -36
513 10 -36
514 10 -36
515 10 -36
516 10 -36
517 10 -36
518 10 -36
519 10 -36
520 10 -36
521 10 -36
522 26 -32
523 26 -32
524 26 -32
525 26 -32
526 26 -32
527 26 -32
528 26 -32
529 26 -32
530 19 -35
531 19 -35
532 19 -35
533 19 -35
534 19 -35
535 19 -35
536 19 -35
537 19 -35
538 19 -35
539 19 -35
540 -5 20
541 -5 20
542 -5 20
543 -5 20
544 -5 20
545 -5 20
546 -5 20
547 -5 20
548 -5 20
549 -13 -16
550 -13 -16
551 -13 -16
552 -13 -16
553 -13 -16
554 -13 -16
555 -13 -16
556 0 -20
557 0 -20
558 0 -20
559 0 -20
560 0 -20
561 0 -20
562 0 -20
563 0 -20
564 0 -20
565 0 -20
566 0 -20
567 0 -3
568 0 -3
569 0 -3
570 0 -3
571 0 -3
DEMAND_SECTION
1 0
2 28
3 28
4 28
5 28
6 7
7 1
8 1
9 28
10 28
11 28
12 14
13 7
14 1
15 1
16 1
17 1
18 28
19 28
20 28
21 14
22 1
23 1
24 1
25 1
26 1
27 1
28 28
29 28
30 28
31 28
32 1
33 28
34 28
35 28
36 28
37 7
38 1
39 1
40 1
41 1
42 28
43 28
44 28
45 28
46 7
47 1
48 1
49 1
50 28
51 28
52 28
53 14
54 7
55 1
56 1
57 1
58 1
59 1
60 1
61 28
62 28
63 28
64 14
65 1
66 1
67 1
68 28
69 28
70 28
71 14
72 1
73 1
74 1
75 1
76 1
77 28
78 28
79 28
80 14
81 28
82 28
83 28
84 28
85 7
86 1
87 28
88 28
89 28
90 14
91 7
92 1
93 1
94 1
95 1
96 28
97 28
98 28
99 14
100 7
101 1
102 1
103 1
104 1
105 1
106 1
107 28
108 28
109 28
110 28
111 28
112 28
113 28
114 28
115 1
116 1
117 1
118 1
119 1
120 28
121 28
122 28
123 14
124 7
125 1
126 28
127 28
128 28
129 14
130 1
131 1
132 28
133 28
134 28
135 28
136 28
137 28
138 28
139 28
140 7
141 1
142 1
143 28
144 28
145 28
146 28
147 1
148 28
149 28
150 28
151 14
152 1
153 1
154 28
155 28
156 28
157 28
158 1
159 1
160 1
161 28
162 28
163 28
164 28
165 1
166 1
167 1
168 1
169 28
170 28
171 28
172 28
173 1
174 1
175 28
176 28
177 28
178 28
179 7
180 1
181 28
182 28
183 28
184 28
185 1
186 1
187 1
188 1
189 1
190 1
191 28
192 28
193 28
194 14
195 28
196 28
197 28
198 28
199 7
200 28
201 28
202 28
203 14
204 1
205 1
206 1
207 1
208 28
209 28
210 28
211 14
212 1
213 1
214 28
215 28
216 28
217 28
218 7
219 1
220 1
221 28
222 28
223 28
224 28
225 7
226 1
227 28
228 28
229 28
230 28
231 7
232 1
233 1
234 28
235 28
236 28
237 14
238 1
239 1
240 1
241 1
242 1
243 1
244 28
245 28
246 28
247 28
248 7
249 1
250 1
251 28
252 28
253 28
254 14
255 7
256 1
257 1
258 1
259 1
260 1
261 1
262 28
263 28
264 28
265 28
266 7
267 28
268 28
269 28
270 14
271 7
272 1
273 1
274 1
275 1
276 1
277 1
278 28
279 28
280 28
281 14
282 7
283 1
284 1
285 1
286 1
287 1
288 1
289 28
290 28
291 28
292 28
293 7
294 1
295 1
296 28
297 28
298 28
299 14
300 1
301 1
302 1
303 1
304 1
305 28
306 28
307 28
308 14
309 1
310 28
311 28
312 28
313 28
314 1
315 1
316 1
317 28
318 28
319 28
320 28
321 1
322 1
323 1
324 1
325 28
326 28
327 28
328 28
329 7
330 1
331 1
332 1
333 28
334 28
335 28
336 14
337 7
338 28
339 28
340 28
341 14
342 7
343 1
344 1
345 1
346 1
347 1
348 1
349 28
350 28
351 28
352 14
353 7
354 1
355 1
356 1
357 1
358 1
359 28
360 28
361 28
362 28
363 7
364 1
365 1
366 28
367 28
368 28
369 28
370 1
371 1
372 1
373 28
374 28
375 28
376 28
377 1
378 1
379 1
380 1
381 28
382 28
383 28
384 28
385 1
386 1
387 1
388 1
389 28
390 28
391 28
392 14
393 1
394 1
395 28
396 28
397 28
398 28
399 7
400 1
401 1
402 1
403 1
404 28
405 28
406 28
407 28
408 1
409 1
410 1
411 1
412 1
413 1
414 28
415 28
416 28
417 28
418 1
419 1
420 1
421 1
422 1
423 1
424 28
425 28
426 28
427 14
428 7
429 1
430 28
431 28
432 28
433 28
434 1
435 1
436 1
437 1
438 1
439 28
440 28
441 28
442 14
443 7
444 1
445 1
446 1
447 1
448 28
449 28
450 28
451 14
452 7
453 1
454 1
455 28
456 28
457 28
458 28
459 7
460 1
461 1
462 1
463 28
464 28
465 28
466 14
467 7
468 28
469 28
470 28
471 14
472 7
473 1
474 28
475 28
476 28
477 14
478 7
479 1
480 28
481 28
482 28
483 14
484 7
485 1
486 1
487 28
488 28
489 28
490 14
491 7
492 1
493 1
494 1
495 1
496 1
497 1
498 28
499 28
500 28
501 28
502 7
503 1
504 1
505 28
506 28
507 28
508 14
509 1
510 1
511 28
512 28
513 28
514 28
515 7
516 1
517 1
518 1
519 1
520 1
521 1
522 28
523 28
524 28
525 28
526 7
527 1
528 1
529 1
530 28
531 28
532 28
533 28
534 7
535 1
536 1
537 1
538 1
539 1
540 28
541 28
542 28
543 28
544 7
545 1
546 1
547 1
548 1
549 28
550 28
551 28
552 28
553 7
554 1
555 1
556 28
557 28
558 28
559 28
560 7
561 1
562 1
563 1
564 1
565 1
566 1
567 28
568 28
569 28
570 14
571 1
DEPOT_SECTION
1
-1
EOF