SDVRP instances/p02/p02_7090_tsplib0_split0.sol
570 -3 2 311 309 310 -4 5 6 308 304 306 307 305 -7 1 473 477 474 476 475 478 -9 8 463 464 462 -11 14 198 197 196 195 194 -19 17 319 221 222 -23 26 21 25 20 22 18 24 317 318 321 323 320 322 316 -30 28 29 27 568 -31 329 328 330 325 331 201 202 199 200 -32 262 261 264 263 -35 33 111 110 113 -39 36 37 34 40 38 521 525 522 523 265 -45 43 42 44 47 41 48 46 -50 49 244 243 246 -51 53 56 57 55 58 52 54 59 388 389 392 390 -62 61 64 66 60 63 65 -69 67 68 70 75 74 73 71 72 279 -79 76 78 77 269 268 -82 487 490 489 491 492 494 493 495 496 488 486 -84 85 81 80 83 266 270 274 275 273 -88 288 289 291 290 -89 91 539 541 543 540 542 547 546 545 544 -94 92 86 87 90 93 285 278 277 282 280 -109 442 438 441 443 446 444 445 440 439 -116 117 112 114 115 118 425 426 424 427 423 428 -120 358 360 359 361 -121 119 469 467 468 -122 123 124 164 165 162 166 167 160 163 161 -126 125 127 128 129 130 -133 131 134 132 368 -138 136 137 140 141 135 139 236 239 237 241 -142 145 143 144 324 -146 527 524 528 526 450 451 452 453 447 449 448 -147 149 152 148 151 150 349 353 355 354 352 356 357 -155 156 154 159 158 153 157 465 466 -172 171 168 169 173 170 363 362 364 -174 176 177 175 223 -178 179 410 409 412 404 411 403 405 406 407 408 293 292 294 -186 181 180 182 183 184 185 189 188 187 -192 190 191 327 326 -193 103 96 97 95 102 99 101 105 100 380 384 385 -205 203 206 204 533 530 529 536 535 531 534 537 532 538 254 256 258 -211 212 210 208 209 207 10 12 13 15 16 508 -213 217 218 219 215 216 214 286 281 284 283 287 -224 220 225 365 371 366 370 367 369 -229 228 226 227 231 230 232 -233 234 382 383 381 -240 238 235 242 332 336 334 333 335 -245 247 249 248 108 106 107 391 393 -260 250 255 253 251 252 259 257 338 347 342 -271 272 276 267 482 483 484 479 481 485 480 -295 300 298 296 301 302 297 303 299 312 314 313 315 -340 344 510 519 520 516 517 513 514 511 518 512 515 -345 337 339 343 341 346 350 348 351 -376 372 374 373 375 379 378 377 -386 387 98 104 396 398 399 401 397 402 394 400 395 -420 414 421 419 413 418 416 415 422 417 470 472 471 -429 435 434 437 432 430 431 433 436 -460 461 455 459 454 457 456 458 570 569 -497 503 499 498 500 501 502 -504 505 506 566 567 -509 507 565 559 564 555 556 561 557 560 563 562 558 -550 548 549 553 551 552 554 0 





OBJ=
3302.078
BEST_KNOWN=
0.000